(declare-const |main__t':140:317:326:1023:1049:1076| Int)
(declare-const __VERIFIER_assert__cond___7 Int)
(declare-const |__VERIFIER_assert__cond___4':298:319:328:1025:1051:1078| Int)
(declare-const |__VERIFIER_assert__cond___8':300:316:325:1022:1048:1075| Int)
(declare-const |phi___tmp_383_0:351:1029:1056| Int)
(declare-const |main____CPAchecker_TMP_6':301:318:327:1024:1050:1077| Int)
(declare-const __VERIFIER_assert__cond___16 Int)
(declare-const havoc Int)
(declare-const |__tmp_383_0':139:163:170:339:1042:1069| Int)
(declare-const |phi_main____CPAchecker_TMP_0:348:1032:1059| Int)
(declare-const |K:158:159:166:335:1038:1065| Int)
(declare-const |main____CPAchecker_TMP_0':141:162:169:338:1041:1068| Int)
(declare-const __VERIFIER_assert__cond___8 Int)
(declare-const |phi___tmp_247_0:350:1030:1057| Int)
(declare-const |__VERIFIER_assert__cond___7':299:315:324:1021:1047:1074| Int)
(declare-const |phi___VERIFIER_assert__cond___12:346:1034:1061| Int)
(declare-const |havoc:9:59:138:334:342:1045:1072| Int)
(declare-const |phi___VERIFIER_assert__cond___11:347:1033:1060| Int)
(declare-const |main____CPAchecker_TMP_0___0':142:165:172:341:1044:1071| Int)
(declare-const |main__t':140:160:167:336:1039:1066| Int)
(declare-const main____CPAchecker_TMP_6 Int)
(declare-const |phi_main____CPAchecker_TMP_0___0:345:1035:1062| Int)
(declare-const main____CPAchecker_TMP_4 Int)
(declare-const |main____CPAchecker_TMP_4':296:321:330:1027:1053:1080| Int)
(declare-const __VERIFIER_assert__cond___3 Int)
(declare-const |K:313:314:323:1020:1046:1073| Int)
(declare-const main____CPAchecker_TMP_3 Int)
(declare-const |__VERIFIER_assert__cond___15':143:161:168:337:1040:1067| Int)
(declare-const __VERIFIER_assert__cond___11 Int)
(declare-const |main____CPAchecker_TMP_3':295:322:331:1028:1054:1081| Int)
(declare-const __VERIFIER_assert__cond___12 Int)
(declare-const |__VERIFIER_assert__cond___16':144:164:171:340:1043:1070| Int)
(declare-const __tmp_383_0 Int)
(declare-const __VERIFIER_assert__cond___4 Int)
(declare-const |__VERIFIER_assert__cond___3':297:320:329:1026:1052:1079| Int)
(declare-const main____CPAchecker_TMP_0___0 Int)
(declare-const __VERIFIER_assert__cond___15 Int)
(declare-const |havoc:3:58:1055| Int)
(declare-const |phi_main__t:349:1031:1058| Int)
(declare-const |phi___VERIFIER_assert__cond___15:344:1036:1063| Int)
(declare-const |phi___VERIFIER_assert__cond___16:343:1037:1064| Int)
(assert (and (<= (+ (- havoc) 1) 0) (not (= (+ (- havoc) 1) 0))
               (or (and (not (= |havoc:3:58:1055| 0))
                          (= (+ (- |phi___tmp_383_0:351:1029:1056|)
                                  __tmp_383_0) 0)
                          (= (+ (- |phi___tmp_247_0:350:1030:1057|)
                                  |havoc:3:58:1055|) 0)
                          (= (- |phi_main__t:349:1031:1058|) 0)
                          (= (+ (- |phi_main____CPAchecker_TMP_0:348:1032:1059|)
                                  |havoc:3:58:1055|) 0)
                          (= (+ (- |phi___VERIFIER_assert__cond___11:347:1033:1060|)
                                  __VERIFIER_assert__cond___11) 0)
                          (= (+ (- |phi___VERIFIER_assert__cond___12:346:1034:1061|)
                                  __VERIFIER_assert__cond___12) 0)
                          (= (+ (- |phi_main____CPAchecker_TMP_0___0:345:1035:1062|)
                                  main____CPAchecker_TMP_0___0) 0)
                          (= (+ (- |phi___VERIFIER_assert__cond___15:344:1036:1063|)
                                  __VERIFIER_assert__cond___15) 0)
                          (= (+ (- |phi___VERIFIER_assert__cond___16:343:1037:1064|)
                                  __VERIFIER_assert__cond___16) 0))
                     (and (= |havoc:3:58:1055| 0)
                            (not (= (ite (<= (+ (- havoc) 1) 0) 1 0) 0))
                            (or (not (<= (- |K:158:159:166:335:1038:1065|) 0))
                                  (= (+ |main__t':140:160:167:336:1039:1066|
                                          (- |K:158:159:166:335:1038:1065|)) 0))
                            (or (not (and (<= (- |K:158:159:166:335:1038:1065|) 0)
                                            (<= |K:158:159:166:335:1038:1065| 0)))
                                  (= (+ |__VERIFIER_assert__cond___15':143:161:168:337:1040:1067|
                                          (- __VERIFIER_assert__cond___15)) 0))
                            (or (not (<= (+ (- |K:158:159:166:335:1038:1065|)
                                              1) 0))
                                  (= (+ |__VERIFIER_assert__cond___15':143:161:168:337:1040:1067|
                                          -1) 0))
                            (or (not (and (<= (- |K:158:159:166:335:1038:1065|) 0)
                                            (<= |K:158:159:166:335:1038:1065| 0)))
                                  (= (+ |main____CPAchecker_TMP_0':141:162:169:338:1041:1068|
                                          (- |havoc:3:58:1055|)) 0))
                            (or (not (<= (+ (- |K:158:159:166:335:1038:1065|)
                                              1) 0))
                                  (= |main____CPAchecker_TMP_0':141:162:169:338:1041:1068| 0))
                            (or (not (and (<= (- |K:158:159:166:335:1038:1065|) 0)
                                            (<= |K:158:159:166:335:1038:1065| 0)))
                                  (= (+ |__tmp_383_0':139:163:170:339:1042:1069|
                                          (- |havoc:3:58:1055|)) 0))
                            (or (not (<= (+ (- |K:158:159:166:335:1038:1065|)
                                              1) 0))
                                  (= |__tmp_383_0':139:163:170:339:1042:1069| 0))
                            (or (not (and (<= (- |K:158:159:166:335:1038:1065|) 0)
                                            (<= |K:158:159:166:335:1038:1065| 0)))
                                  (= (+ |__VERIFIER_assert__cond___16':144:164:171:340:1043:1070|
                                          (- __VERIFIER_assert__cond___16)) 0))
                            (or (not (<= (+ (- |K:158:159:166:335:1038:1065|)
                                              1) 0))
                                  (= (+ |__VERIFIER_assert__cond___16':144:164:171:340:1043:1070|
                                          -1) 0))
                            (or (not (and (<= (- |K:158:159:166:335:1038:1065|) 0)
                                            (<= |K:158:159:166:335:1038:1065| 0)))
                                  (= (+ |main____CPAchecker_TMP_0___0':142:165:172:341:1044:1071|
                                          (- main____CPAchecker_TMP_0___0)) 0))
                            (or (not (<= (+ (- |K:158:159:166:335:1038:1065|)
                                              1) 0))
                                  (= |main____CPAchecker_TMP_0___0':142:165:172:341:1044:1071| 0))
                            (or (and (= |K:158:159:166:335:1038:1065| 0)
                                       (= (+ (- |__VERIFIER_assert__cond___16':144:164:171:340:1043:1070|)
                                               __VERIFIER_assert__cond___16) 0)
                                       (= (+ (- |__VERIFIER_assert__cond___15':143:161:168:337:1040:1067|)
                                               __VERIFIER_assert__cond___15) 0)
                                       (= (+ (- |main____CPAchecker_TMP_0___0':142:165:172:341:1044:1071|)
                                               main____CPAchecker_TMP_0___0) 0)
                                       (= (+ (- |main____CPAchecker_TMP_0':141:162:169:338:1041:1068|)
                                               |havoc:3:58:1055|) 0)
                                       (= (- |main__t':140:160:167:336:1039:1066|) 0)
                                       (= (+ (- |__tmp_383_0':139:163:170:339:1042:1069|)
                                               |havoc:3:58:1055|) 0))
                                  (and (<= (+ (- |K:158:159:166:335:1038:1065|)
                                                1) 0) (= |havoc:3:58:1055| 0)
                                         (= |havoc:3:58:1055| 0)
                                         (<= (+ (- havoc) 3) 0)
                                         (= (+ |__VERIFIER_assert__cond___16':144:164:171:340:1043:1070|
                                                 -1) 0)
                                         (= (+ |__VERIFIER_assert__cond___15':143:161:168:337:1040:1067|
                                                 -1) 0)
                                         (= |main____CPAchecker_TMP_0':141:162:169:338:1041:1068| 0)
                                         (= |main____CPAchecker_TMP_0___0':142:165:172:341:1044:1071| 0)
                                         (= |__tmp_383_0':139:163:170:339:1042:1069| 0)
                                         (<= (+ |main__t':140:160:167:336:1039:1066|
                                                  (- havoc) 2) 0)
                                         (<= (+ (- |main__t':140:160:167:336:1039:1066|)
                                                  1) 0)))
                            (<= (- |K:158:159:166:335:1038:1065|) 0)
                            (= |__tmp_383_0':139:163:170:339:1042:1069| 0)
                            (= |main____CPAchecker_TMP_0':141:162:169:338:1041:1068| 0)
                            (<= (- |main__t':140:160:167:336:1039:1066|) 0)
                            (< (+ (- havoc) 1) 0)
                            (= |__tmp_383_0':139:163:170:339:1042:1069| 0)
                            (= |main____CPAchecker_TMP_0':141:162:169:338:1041:1068| 0)
                            (not (= (+ |main__t':140:160:167:336:1039:1066|
                                         (- havoc) 2) 0))
                            (not (= |havoc:9:59:138:334:342:1045:1072| 0))
                            (= (+ |__tmp_383_0':139:163:170:339:1042:1069|
                                    (- |phi___tmp_383_0:351:1029:1056|)) 0)
                            (= (+ |havoc:9:59:138:334:342:1045:1072|
                                    (- |phi___tmp_247_0:350:1030:1057|)) 0)
                            (= (+ |main__t':140:160:167:336:1039:1066|
                                    (- |phi_main__t:349:1031:1058|) 1) 0)
                            (= (+ |__tmp_383_0':139:163:170:339:1042:1069|
                                    (- |phi_main____CPAchecker_TMP_0:348:1032:1059|)) 0)
                            (= (+ (- |phi___VERIFIER_assert__cond___11:347:1033:1060|)
                                    1) 0)
                            (= (+ (ite (<= (+ (- havoc) 1) 0) 1 0)
                                    (- |phi___VERIFIER_assert__cond___12:346:1034:1061|)) 0)
                            (= (+ |havoc:9:59:138:334:342:1045:1072|
                                    (- |phi_main____CPAchecker_TMP_0___0:345:1035:1062|)) 0)
                            (= (+ |__VERIFIER_assert__cond___15':143:161:168:337:1040:1067|
                                    (- |phi___VERIFIER_assert__cond___15:344:1036:1063|)) 0)
                            (= (+ |__VERIFIER_assert__cond___16':144:164:171:340:1043:1070|
                                    (- |phi___VERIFIER_assert__cond___16:343:1037:1064|)) 0)))
               (not (= (ite (<= (- |phi_main__t:349:1031:1058|) 0) 1 0) 0))
               (not (= (ite (<= (+ |phi_main__t:349:1031:1058| (- havoc) 1) 0)
                            1 0) 0))
               (or (not (and (<= (- |K:313:314:323:1020:1046:1073|) 0)
                               (<= |K:313:314:323:1020:1046:1073| 0)))
                     (= (+ (- __VERIFIER_assert__cond___7)
                             |__VERIFIER_assert__cond___7':299:315:324:1021:1047:1074|) 0))
               (or (not (<= (+ (- |K:313:314:323:1020:1046:1073|) 1) 0))
                     (= (+ |__VERIFIER_assert__cond___7':299:315:324:1021:1047:1074|
                             -1) 0))
               (or (not (and (<= (- |K:313:314:323:1020:1046:1073|) 0)
                               (<= |K:313:314:323:1020:1046:1073| 0)))
                     (= (+ (- __VERIFIER_assert__cond___8)
                             |__VERIFIER_assert__cond___8':300:316:325:1022:1048:1075|) 0))
               (or (not (<= (+ (- |K:313:314:323:1020:1046:1073|) 1) 0))
                     (= (+ |__VERIFIER_assert__cond___8':300:316:325:1022:1048:1075|
                             -1) 0))
               (or (not (<= (- |K:313:314:323:1020:1046:1073|) 0))
                     (<= (+ |main__t':140:317:326:1023:1049:1076|
                              (* -2 |K:313:314:323:1020:1046:1073|)
                              (- |phi_main__t:349:1031:1058|) -1) 0))
               (or (not (<= (- |K:313:314:323:1020:1046:1073|) 0))
                     (<= (+ |main__t':140:317:326:1023:1049:1076|
                              (* 2 |K:313:314:323:1020:1046:1073|)
                              (- |phi_main__t:349:1031:1058|)
                              (- (* |K:313:314:323:1020:1046:1073| havoc)) -1) 0))
               (or (not (<= (- |K:313:314:323:1020:1046:1073|) 0))
                     (<= (+ (- |main__t':140:317:326:1023:1049:1076|)
                              |K:313:314:323:1020:1046:1073|
                              |phi_main__t:349:1031:1058| 1) 0))
               (or (and (= |K:313:314:323:1020:1046:1073| 0)
                          (= (+ (- |main____CPAchecker_TMP_6':301:318:327:1024:1050:1077|)
                                  main____CPAchecker_TMP_6) 0)
                          (= (+ __VERIFIER_assert__cond___8
                                  (- |__VERIFIER_assert__cond___8':300:316:325:1022:1048:1075|)) 0)
                          (= (+ __VERIFIER_assert__cond___7
                                  (- |__VERIFIER_assert__cond___7':299:315:324:1021:1047:1074|)) 0)
                          (= (+ (- |__VERIFIER_assert__cond___4':298:319:328:1025:1051:1078|)
                                  __VERIFIER_assert__cond___4) 0)
                          (= (+ (- |__VERIFIER_assert__cond___3':297:320:329:1026:1052:1079|)
                                  __VERIFIER_assert__cond___3) 0)
                          (= (+ (- |main____CPAchecker_TMP_4':296:321:330:1027:1053:1080|)
                                  main____CPAchecker_TMP_4) 0)
                          (= (+ (- |main____CPAchecker_TMP_3':295:322:331:1028:1054:1081|)
                                  main____CPAchecker_TMP_3) 0)
                          (= (+ (- |main__t':140:317:326:1023:1049:1076|)
                                  |phi_main__t:349:1031:1058| 1) 0))
                     (and (<= (+ (- |K:313:314:323:1020:1046:1073|) 1) 0)
                            (<= (+ |phi_main__t:349:1031:1058| (- havoc) 3) 0)
                            (<= (- |phi_main__t:349:1031:1058|) 0)
                            (= (+ |__VERIFIER_assert__cond___8':300:316:325:1022:1048:1075|
                                    -1) 0)
                            (= (+ |__VERIFIER_assert__cond___7':299:315:324:1021:1047:1074|
                                    -1) 0)
                            (<= (+ |main__t':140:317:326:1023:1049:1076|
                                     (- havoc) 1) 0)
                            (<= (+ (- |main__t':140:317:326:1023:1049:1076|)
                                     2) 0)))
               (<= (- |K:313:314:323:1020:1046:1073|) 0)
               (< (- |main__t':140:317:326:1023:1049:1076|) 0)
               (< (+ (- havoc) 1) 0)
               (= (+ |main__t':140:317:326:1023:1049:1076| (- havoc) 1) 0)
               (not (= (ite (<= (- |main__t':140:317:326:1023:1049:1076|) 0)
                            1 0) 0))
               (= (ite (<= (+ |main__t':140:317:326:1023:1049:1076| (- 
                                havoc) 1) 0)
                       1 0) 0)))
(check-sat)
